4 5 1.0 0 0 0 0 4101 4101
1 0 0 0 1
0 0 5 -1 1 1 9 -1 1 5 6 -1 1 3 17 -1 1 2 13 -1 1 4 10 
0 0 5 -1 1 3 12 -1 1 2 7 -1 1 1 15 -1 1 5 12 -1 1 4 5 
0 0 5 -1 1 1 13 -1 1 3 15 -1 1 4 17 -1 1 2 20 -1 1 5 13 
0 0 5 -1 1 4 20 -1 1 1 10 -1 1 2 20 -1 1 3 8 -1 1 5 20 
